************************************************************************
file with basedata            : mm42_.bas
initial value random generator: 25844205
************************************************************************
projects                      :  1
jobs (incl. supersource/sink ):  12
horizon                       :  81
RESOURCES
  - renewable                 :  2   R
  - nonrenewable              :  2   N
  - doubly constrained        :  0   D
************************************************************************
PROJECT INFORMATION:
pronr.  #jobs rel.date duedate tardcost  MPM-Time
    1     10      0       23        8       23
************************************************************************
PRECEDENCE RELATIONS:
jobnr.    #modes  #successors   successors
   1        1          3           2   3   4
   2        3          3           5   7   9
   3        3          1           9
   4        3          2           6   9
   5        3          1           6
   6        3          1           8
   7        3          2          10  11
   8        3          2          10  11
   9        3          1          12
  10        3          1          12
  11        3          1          12
  12        1          0        
************************************************************************
REQUESTS/DURATIONS:
jobnr. mode duration  R 1  R 2  N 1  N 2
------------------------------------------------------------------------
  1      1     0       0    0    0    0
  2      1     6       1    3    0    6
         2     9       1    2    8    0
         3    10       1    1    2    0
  3      1     3       6    8    6    0
         2     8       4    7    0    7
         3     8       5    6    6    0
  4      1     3       4   10   10    0
         2     4       3    9   10    0
         3     6       3    9    0    6
  5      1     2       2    3    0    6
         2     5       2    2    6    0
         3     8       1    2    0    6
  6      1     4       7    2    3    0
         2     6       6    1    0    5
         3     6       6    2    3    0
  7      1     5       4    6    0    7
         2     7       4    5    0    7
         3     8       3    4    5    0
  8      1     4       6    8    0    3
         2     7       5    6    0    1
         3    10       5    4    9    0
  9      1     7       6   10    7    0
         2     7       8    9    0    7
         3     9       6    8    6    0
 10      1     1       9    4    7    0
         2     6       7    3    0    4
         3     7       1    2    5    0
 11      1     7       7    8    7    0
         2     7       7    7    0    8
         3     9       5    2    8    0
 12      1     0       0    0    0    0
************************************************************************
RESOURCEAVAILABILITIES:
  R 1  R 2  N 1  N 2
   13   15   35   30
************************************************************************
************************************************************************
MAXIMAL LAGS:
from  to  type  delay
    1    2   SE      3
    1    3   SS     -3
    1    4   SE     -3
    2    5   SS     -3
    2    7   SE      4
    2    9   SE      1
    3    9   SS      2
    4    6   ES      0
    4    9   ES     -1
    5    6   EE      4
    6    8   SS     -2
    7   10   SS      1
    7   11   SE      4
    8   10   ES      0
    8   11   EE      1
    9   12   ES      5
   10   12   ES      0
   11   12   ES      2
************************************************************************
